NAME : rnd94_20.tsp
TYPE : TSP
DIMENSION : 20
EDGE_WEIGHT_TYPE : EUC_2D
NODE_COORD_SECTION
0 439 613
1 47 29
2 656 637
3 876 296
4 410 0
5 637 502
6 495 314
7 602 358
8 75 187
9 537 467
10 532 60
11 925 317
12 135 636
13 42 404
14 24 911
15 986 867
16 772 278
17 669 653
18 105 488
19 209 160
